c A SAT instance generated from a 3-CNF formula that had 30 clauses and 10 variables
p cnf 10 30
-5 10 7 0
2 5 1 0
1 -5 -7 0
-1 4 3 0
-6 -8 4 0
-7 -2 -6 0
-4 10 -8 0
5 -7 10 0
-3 -6 4 0
-2 7 -3 0
-10 5 6 0
-5 -9 6 0
3 6 5 0
1 2 4 0
-1 -6 10 0
9 7 2 0
-2 -8 3 0
8 -9 -10 0
9 -5 4 0
3 7 8 0
-6 -8 1 0
-6 -1 2 0
7 2 4 0
3 -5 -10 0
-9 7 -5 0
4 9 3 0
-6 1 -5 0
10 -5 6 0
-6 -7 1 0
8 -7 -10 0
